c Generated map
c Size: 10 * 10, weights in range: 1 to 10, walls: False, with ratio 0.0
c dim 3 of 6
c
p sp 100 180
c graph contains 100 nodes and 180 arcs
c
a 1 11 7
a 11 1 7
a 1 2 5
a 2 1 5
a 2 12 2
a 12 2 2
a 2 3 2
a 3 2 2
a 3 13 6
a 13 3 6
a 3 4 2
a 4 3 2
a 4 14 8
a 14 4 8
a 4 5 10
a 5 4 10
a 5 15 7
a 15 5 7
a 5 6 2
a 6 5 2
a 6 16 7
a 16 6 7
a 6 7 5
a 7 6 5
a 7 17 6
a 17 7 6
a 7 8 8
a 8 7 8
a 8 18 7
a 18 8 7
a 8 9 5
a 9 8 5
a 9 19 4
a 19 9 4
a 9 10 1
a 10 9 1
a 10 20 8
a 20 10 8
a 11 21 6
a 21 11 6
a 11 12 3
a 12 11 3
a 12 22 5
a 22 12 5
a 12 13 3
a 13 12 3
a 13 23 4
a 23 13 4
a 13 14 2
a 14 13 2
a 14 24 6
a 24 14 6
a 14 15 8
a 15 14 8
a 15 25 6
a 25 15 6
a 15 16 6
a 16 15 6
a 16 26 10
a 26 16 10
a 16 17 5
a 17 16 5
a 17 27 6
a 27 17 6
a 17 18 3
a 18 17 3
a 18 28 2
a 28 18 2
a 18 19 1
a 19 18 1
a 19 29 3
a 29 19 3
a 19 20 5
a 20 19 5
a 20 30 6
a 30 20 6
a 21 31 10
a 31 21 10
a 21 22 7
a 22 21 7
a 22 32 9
a 32 22 9
a 22 23 1
a 23 22 1
a 23 33 3
a 33 23 3
a 23 24 7
a 24 23 7
a 24 34 8
a 34 24 8
a 24 25 3
a 25 24 3
a 25 35 2
a 35 25 2
a 25 26 9
a 26 25 9
a 26 36 3
a 36 26 3
a 26 27 7
a 27 26 7
a 27 37 2
a 37 27 2
a 27 28 6
a 28 27 6
a 28 38 4
a 38 28 4
a 28 29 2
a 29 28 2
a 29 39 4
a 39 29 4
a 29 30 6
a 30 29 6
a 30 40 2
a 40 30 2
a 31 41 6
a 41 31 6
a 31 32 4
a 32 31 4
a 32 42 3
a 42 32 3
a 32 33 10
a 33 32 10
a 33 43 5
a 43 33 5
a 33 34 5
a 34 33 5
a 34 44 2
a 44 34 2
a 34 35 7
a 35 34 7
a 35 45 8
a 45 35 8
a 35 36 2
a 36 35 2
a 36 46 4
a 46 36 4
a 36 37 8
a 37 36 8
a 37 47 1
a 47 37 1
a 37 38 8
a 38 37 8
a 38 48 7
a 48 38 7
a 38 39 8
a 39 38 8
a 39 49 10
a 49 39 10
a 39 40 3
a 40 39 3
a 40 50 3
a 50 40 3
a 41 51 1
a 51 41 1
a 41 42 1
a 42 41 1
a 42 52 9
a 52 42 9
a 42 43 3
a 43 42 3
a 43 53 10
a 53 43 10
a 43 44 8
a 44 43 8
a 44 54 6
a 54 44 6
a 44 45 7
a 45 44 7
a 45 55 1
a 55 45 1
a 45 46 4
a 46 45 4
a 46 56 2
a 56 46 2
a 46 47 3
a 47 46 3
a 47 57 4
a 57 47 4
a 47 48 3
a 48 47 3
a 48 58 5
a 58 48 5
a 48 49 10
a 49 48 10
a 49 59 9
a 59 49 9
a 49 50 10
a 50 49 10
a 50 60 1
a 60 50 1
a 51 61 10
a 61 51 10
a 51 52 3
a 52 51 3
a 52 62 10
a 62 52 10
a 52 53 5
a 53 52 5
a 53 63 2
a 63 53 2
a 53 54 9
a 54 53 9
a 54 64 6
a 64 54 6
a 54 55 7
a 55 54 7
a 55 65 9
a 65 55 9
a 55 56 8
a 56 55 8
a 56 66 8
a 66 56 8
a 56 57 1
a 57 56 1
a 57 67 7
a 67 57 7
a 57 58 4
a 58 57 4
a 58 68 10
a 68 58 10
a 58 59 7
a 59 58 7
a 59 69 9
a 69 59 9
a 59 60 4
a 60 59 4
a 60 70 9
a 70 60 9
a 61 71 4
a 71 61 4
a 61 62 6
a 62 61 6
a 62 72 8
a 72 62 8
a 62 63 5
a 63 62 5
a 63 73 6
a 73 63 6
a 63 64 4
a 64 63 4
a 64 74 7
a 74 64 7
a 64 65 7
a 65 64 7
a 65 75 5
a 75 65 5
a 65 66 4
a 66 65 4
a 66 76 4
a 76 66 4
a 66 67 9
a 67 66 9
a 67 77 3
a 77 67 3
a 67 68 2
a 68 67 2
a 68 78 3
a 78 68 3
a 68 69 6
a 69 68 6
a 69 79 9
a 79 69 9
a 69 70 5
a 70 69 5
a 70 80 2
a 80 70 2
a 71 81 2
a 81 71 2
a 71 72 5
a 72 71 5
a 72 82 1
a 82 72 1
a 72 73 3
a 73 72 3
a 73 83 1
a 83 73 1
a 73 74 7
a 74 73 7
a 74 84 8
a 84 74 8
a 74 75 9
a 75 74 9
a 75 85 9
a 85 75 9
a 75 76 5
a 76 75 5
a 76 86 4
a 86 76 4
a 76 77 6
a 77 76 6
a 77 87 6
a 87 77 6
a 77 78 9
a 78 77 9
a 78 88 2
a 88 78 2
a 78 79 10
a 79 78 10
a 79 89 4
a 89 79 4
a 79 80 3
a 80 79 3
a 80 90 7
a 90 80 7
a 81 91 9
a 91 81 9
a 81 82 1
a 82 81 1
a 82 92 6
a 92 82 6
a 82 83 3
a 83 82 3
a 83 93 5
a 93 83 5
a 83 84 10
a 84 83 10
a 84 94 8
a 94 84 8
a 84 85 4
a 85 84 4
a 85 95 5
a 95 85 5
a 85 86 9
a 86 85 9
a 86 96 10
a 96 86 10
a 86 87 3
a 87 86 3
a 87 97 3
a 97 87 3
a 87 88 8
a 88 87 8
a 88 98 2
a 98 88 2
a 88 89 10
a 89 88 10
a 89 99 3
a 99 89 3
a 89 90 7
a 90 89 7
a 90 100 9
a 100 90 9
a 91 92 2
a 92 91 2
a 92 93 6
a 93 92 6
a 93 94 5
a 94 93 5
a 94 95 8
a 95 94 8
a 95 96 5
a 96 95 5
a 96 97 5
a 97 96 5
a 97 98 1
a 98 97 1
a 98 99 6
a 99 98 6
a 99 100 8
a 100 99 8
